20
XYZ file generated by Avogadro.
O     -9.4399963193    5.2960268991   -0.0324346171
O     -8.1156801291    5.8365273408   -0.0421465347
O     -5.0627990854    4.5595035722   -0.1401525006
O     -4.5665134215    3.2205875047   -0.0560792543
O     -8.6896024991    1.9806648924   -0.1130961426
O     -7.6425591555    2.6940739966    0.5526534416
O     -2.3511072100    6.4318985672    0.0067794180
O     -3.4553048956    7.3402871229    0.0109723506
O      0.2067172022    0.6641163290   -0.1970183090
O      1.5673125746    1.0248504867    0.0572275061
